198 21446
1 16 17 18 19 20 21 25 26 27 24 22 23 28 34 35 51 76 81 96 95 154 155 156 157 158 159 160 153 161 162 152 163 164 165 166 151 150 144 145 146 143 142 149 148 147 140 141 135 136 133 134 138 139 123 121 122 115 116 117 118 119 120 124 169 126 125 131 132 130 170 127 129 137 172 182 183 181 177 180 178 175 174 173 176 63 49 48 50 64 94 101 102 93 103 104 105 114 113 112 109 128 171 190 191 188 184 185 179 194 195 198 197 196 186 193 192 187 189 168 167 108 110 111 107 106 92 91 80 79 78 77 65 47 39 52 46 33 30 29 32 31 38 14 15 40 9 8 10 11 12 13 57 58 69 71 85 86 100 99 87 84 73 70 67 60 72 68 59 56 44 45 54 37 36 53 62 75 90 89 82 97 98 88 83 74 66 61 55 43 42 41 5 4 3 6 7 2 
